<instance format="XCSP3" type="CSP">
  <variables>
    <var id="x0"> 0 </var>
    <var id="x1"> 4 5 11 13 </var>
    <var id="x2"> 0 4 8 13 17 </var>
    <var id="x3"> 5 9 11 </var>
    <var id="x4"> 4 8 11 </var>
    <var id="x5"> 0 5 11 </var>
    <var id="x6"> 4 8 13 17 </var>
    <var id="x7"> 4 8 9 17 </var>
    <var id="x8"> 0 1 3 4 7 12 </var>
    <var id="x9"> 2 12 </var>
    <var id="x10"> 0 3 4 7 </var>
    <var id="x11"> 4 9 </var>
    <var id="x12"> 0 1 3 4 9 </var>
    <var id="x13"> 0 2 4 9 </var>
    <var id="x14"> 1 4 7 9 </var>
    <var id="x15"> 0 3 4 7 </var>
    <var id="x16"> 2 5 8 11 16 </var>
    <var id="x17"> 3 8 13 </var>
    <var id="x18"> 2 5 11 16 </var>
    <var id="x19"> 1 3 5 8 </var>
    <var id="x20"> 1 3 8 13 </var>
    <var id="x21"> 1 2 5 11 16 </var>
    <var id="x22"> 2 3 8 13 </var>
    <var id="x23"> 1 8 </var>
    <var id="x24"> 1 3 6 </var>
    <var id="x25"> 5 8 </var>
    <var id="x26"> 5 6 14 16 </var>
    <var id="x27"> 2 5 6 16 </var>
    <var id="x28"> 1 6 8 14 16 </var>
    <var id="x29"> 1 2 5 14 16 </var>
    <var id="x30"> 1 8 14 </var>
    <var id="x31"> 3 5 6 8 16 </var>
    <var id="x32"> 1 4 7 10 </var>
    <var id="x33"> 1 6 7 10 </var>
    <var id="x34"> 4 7 11 </var>
    <var id="x35"> 4 7 10 13 </var>
    <var id="x36"> 4 11 13 </var>
    <var id="x37"> 2 6 7 13 </var>
    <var id="x38"> 1 2 10 11 </var>
    <var id="x39"> 2 4 6 7 13 </var>
    <var id="x40"> 0 4 7 10 17 </var>
    <var id="x41"> 8 16 17 </var>
    <var id="x42"> 0 4 7 8 10 17 </var>
    <var id="x43"> 7 10 16 </var>
    <var id="x44"> 4 8 14 16 </var>
    <var id="x45"> 7 8 10 17 </var>
    <var id="x46"> 0 10 14 16 </var>
    <var id="x47"> 0 4 7 8 16 </var>
    <var id="x48"> 4 7 10 12 17 </var>
    <var id="x49"> 6 7 10 12 </var>
    <var id="x50"> 4 5 7 11 12 17 </var>
    <var id="x51"> 4..7 11 </var>
    <var id="x52"> 5..7 10 11 </var>
    <var id="x53"> 4 5 10 17 </var>
    <var id="x54"> 7 10 17 </var>
    <var id="x55"> 5 10 11 </var>
    <var id="x56"> 3 4 7 17 </var>
    <var id="x57"> 4 5 7 </var>
    <var id="x58"> 2 5 8 </var>
    <var id="x59"> 2 5 7 9 </var>
    <var id="x60"> 2 3 5 7 17 </var>
    <var id="x61"> 2..4 7 8 17 </var>
    <var id="x62"> 4 7..9 17 </var>
    <var id="x63"> 3..5 7 8 </var>
    <var id="x64"> 0 7 12 </var>
    <var id="x65"> 0 5 7 12 17 </var>
    <var id="x66"> 5 12..14 16 </var>
    <var id="x67"> 5 12 16 17 </var>
    <var id="x68"> 5 13 14 </var>
    <var id="x69"> 12 14 16 </var>
    <var id="x70"> 5 7 13 17 </var>
    <var id="x71"> 0 5 7 16 </var>
    <var id="x72"> 2 6 8 11 </var>
    <var id="x73"> 4 8 11 14 </var>
    <var id="x74"> 0 1 4 8 </var>
    <var id="x75"> 2 6 </var>
    <var id="x76"> 1 8 </var>
    <var id="x77"> 0..2 11 14 </var>
    <var id="x78"> 2 4 6 8 </var>
    <var id="x79"> 1 4 8 14 </var>
    <var id="x80"> 6 10 </var>
    <var id="x81"> 4 5 8 17 </var>
    <var id="x82"> 5 8 14 </var>
    <var id="x83"> 4 5 8 14 </var>
    <var id="x84"> 4 5 8 17 </var>
    <var id="x85"> 4 6 8 17 </var>
    <var id="x86"> 4 8 10 14 17 </var>
    <var id="x87"> 0 7 10 </var>
    <var id="x88"> 5 7 13 16 </var>
    <var id="x89"> 5 13 16 </var>
    <var id="x90"> 0 5 9 </var>
    <var id="x91"> 16 </var>
    <var id="x92"> 5 7 13 </var>
    <var id="x93"> 0 5 9 10 </var>
    <var id="x94"> 0 5 7 8 </var>
    <var id="x95"> 2 5 8 16 </var>
    <var id="x96"> 2 5 6 8 16 </var>
    <var id="x97"> 2 5..7 16 </var>
    <var id="x98"> 0 2 5 </var>
    <var id="x99"> 3 7 8 </var>
    <var id="x100"> 2 3 6..8 </var>
    <var id="x101"> 0 3 5..8 16 </var>
    <var id="x102"> 0 7 10 12 </var>
    <var id="x103"> 7 11 13 </var>
    <var id="x104"> 0 7 8 10 13 </var>
    <var id="x105"> 0 8 9 </var>
    <var id="x106"> 8 11 12 </var>
    <var id="x107"> 7 13 </var>
    <var id="x108"> 0 9 10 </var>
    <var id="x109"> 0 7 8 </var>
    <var id="x110"> 4 5 7 12 17 </var>
    <var id="x111"> 5 6 12 17 </var>
    <var id="x112"> 5..7 10 </var>
    <var id="x113"> 4 5 </var>
    <var id="x114"> 1 4 5 17 </var>
    <var id="x115"> 5..7 17 </var>
    <var id="x116"> 1 7 10 17 </var>
    <var id="x117"> 4..7 </var>
    <var id="x118"> 1 3 15 </var>
    <var id="x119"> 5 13 16 </var>
    <var id="x120"> 3 8 13 17 </var>
    <var id="x121"> 5 8 13 </var>
    <var id="x122"> 1 8 16 </var>
    <var id="x123"> 5 17 </var>
    <var id="x124"> 1 3 8 13 15 17 </var>
    <var id="x125"> 1 8 17 </var>
    <var id="x126"> 3 7 10 12 15 </var>
    <var id="x127"> 12 </var>
    <var id="x128"> 11 12 17 </var>
    <var id="x129"> 3 4 7 10 17 </var>
    <var id="x130"> 3 4 17 </var>
    <var id="x131"> 3 7 15 17 </var>
    <var id="x132"> 4 10 17 </var>
    <var id="x133"> 10 11 </var>
    <var id="x134"> 3 4 17 </var>
    <var id="x135"> 4 8 17 </var>
    <var id="x136"> 4 6 14 </var>
    <var id="x137"> 8 14 </var>
    <var id="x138"> 4 6 8 14 </var>
    <var id="x139"> 3 8 15 17 </var>
    <var id="x140"> 3 4 6 8 17 </var>
  </variables>
  <constraints>
    <group>
      <allDifferent> %... </allDifferent>
      <args> x0 x1 x2 x3 x4 x5 x6 x7 </args>
      <args> x8 x9 x10 x11 x12 x13 x14 x15 </args>
      <args> x16 x17 x18 x19 x20 x21 x22 x23 </args>
      <args> x24 x25 x26 x27 x28 x29 x30 x31 </args>
      <args> x32 x33 x34 x35 x36 x37 x38 x39 </args>
      <args> x40 x41 x42 x43 x44 x45 x46 x47 </args>
      <args> x48 x49 x50 x51 x52 x53 x54 x55 </args>
      <args> x56 x57 x58 x59 x60 x61 x62 x63 </args>
      <args> x64 x65 x66 x67 x68 x69 x70 x71 </args>
      <args> x72 x73 x74 x75 x76 x77 x78 x79 </args>
      <args> x80 x81 x82 x83 x84 x85 x86 </args>
      <args> x87 x88 x89 x90 x91 x92 x93 </args>
      <args> x94 x95 x96 x97 x98 x99 x100 x101 </args>
      <args> x102 x103 x104 x105 x106 x107 x108 x109 </args>
      <args> x110 x111 x112 x113 x114 x115 x116 x117 </args>
      <args> x118 x119 x120 x121 x122 x123 x124 x125 </args>
      <args> x126 x127 x128 x129 x130 x131 x132 x133 </args>
      <args> x134 x135 x136 x137 x138 x139 x140 </args>
      <args> x8 x32 x40 x48 x56 x87 x102 x134 </args>
      <args> x0 x24 x33 x49 x64 x80 x118 x126 </args>
      <args> x25 x34 x50 x65 x81 x94 x110 x135 </args>
      <args> x1 x26 x51 x57 x88 x103 x119 x136 </args>
      <args> x58 x66 x82 x89 x95 x127 x137 </args>
      <args> x9 x16 x41 x67 x72 x96 x111 x128 </args>
      <args> x2 x10 x17 x35 x42 x104 x120 x129 </args>
      <args> x3 x18 x27 x43 x52 x59 x97 x112 </args>
      <args> x11 x36 x68 x73 x83 x113 x121 </args>
      <args> x12 x19 x74 x84 x90 x105 x114 x130 </args>
      <args> x4 x28 x44 x69 x91 x106 x122 x138 </args>
      <args> x37 x60 x70 x75 x92 x107 x115 x131 </args>
      <args> x13 x53 x93 x98 x108 x123 x132 </args>
      <args> x20 x45 x54 x76 x99 x116 x124 x139 </args>
      <args> x5 x21 x29 x38 x46 x55 x77 x133 </args>
      <args> x6 x22 x39 x61 x78 x85 x100 x140 </args>
      <args> x7 x14 x23 x30 x62 x79 x86 x125 </args>
      <args> x15 x31 x47 x63 x71 x101 x109 x117 </args>
    </group>
  </constraints>
</instance>

